* SDPA sparse format data
* File name = nonscomp(8).dat-s
* mDim = 110, nBlock = 24
* size of bVect = 1 * 110
* size of sparseMatrix =  730 * 5
110
 24
-59  6  6  6  6  6  6  6  6  6  6  6  6  6  6  6  6  6  6  6  6  6  6  6 
  -0.3867187500   -0.4687500000   -0.4687500000   -0.4687500000   -0.4687500000   -0.4687500000   -0.4687500000   -0.0937500000    0.8828125000    0.2500000000    0.9062500000    0.2500000000    0.9062500000    0.2500000000    0.9062500000    0.2500000000    0.9062500000    0.2500000000    0.9062500000    0.2500000000    0.9062500000    0.2500000000    0.0312500000   -1.0000000000   -0.2500000000    0.0000000000   -1.0000000000   -0.2500000000    0.0000000000   -1.0000000000   -0.2500000000    0.0000000000   -1.0000000000   -0.2500000000    0.0000000000   -1.0000000000   -0.2500000000    0.0000000000   -1.0000000000   -0.2500000000    0.0000000000   -1.0000000000   -0.2500000000    0.0000000000    0.0000000000    0.5000000000    0.0000000000    0.0000000000    0.0000000000    0.5000000000    0.0000000000    0.0000000000    0.0000000000    0.5000000000    0.0000000000    0.0000000000    0.0000000000    0.5000000000    0.0000000000    0.0000000000    0.0000000000    0.5000000000    0.0000000000    0.0000000000    0.0000000000    0.5000000000    0.0000000000    0.0000000000    0.0000000000    0.5000000000    0.0000000000    0.0000000000    0.0000000000    0.0000000000    0.0000000000    0.0000000000    0.0000000000    0.0000000000    0.0000000000    0.0000000000    0.0000000000    0.0000000000    0.0000000000    0.0000000000    0.0000000000    0.0000000000    0.0000000000    0.0000000000    0.0000000000    0.0000000000    0.0000000000    0.0000000000    0.0000000000    0.0000000000    0.0000000000    0.0000000000    0.0000000000    0.0000000000    0.0000000000    0.0000000000    0.0000000000    0.0000000000    0.0000000000    0.0000000000    0.0000000000    0.0000000000    0.0000000000    0.0000000000    0.0000000000    0.0000000000 
 10   1   1   1    1.0000000000
 12   1   2   2    1.0000000000
 14   1   3   3    1.0000000000
 16   1   4   4    1.0000000000
 18   1   5   5    1.0000000000
 20   1   6   6    1.0000000000
 22   1   7   7    1.0000000000
 29   1   8   8    1.0000000000
 32   1   9   9    1.0000000000
 35   1  10  10    1.0000000000
 38   1  11  11    1.0000000000
 41   1  12  12    1.0000000000
 44   1  13  13    1.0000000000
 47   1  14  14    1.0000000000
 49   1  15  15    1.0000000000
 51   1  16  16    1.0000000000
 53   1  17  17    1.0000000000
 55   1  18  18    1.0000000000
 57   1  19  19    1.0000000000
 59   1  20  20    1.0000000000
 61   1  21  21    1.0000000000
 63   1  22  22    1.0000000000
 65   1  23  23    1.0000000000
 67   1  24  24    1.0000000000
 69   1  25  25    1.0000000000
 71   1  26  26    1.0000000000
 73   1  27  27    1.0000000000
 82   1  28  28    1.0000000000
 84   1  29  29    1.0000000000
 87   1  30  30    1.0000000000
 89   1  31  31    1.0000000000
 92   1  32  32    1.0000000000
 94   1  33  33    1.0000000000
 97   1  34  34    1.0000000000
 99   1  35  35    1.0000000000
102   1  36  36    1.0000000000
104   1  37  37    1.0000000000
107   1  38  38    1.0000000000
109   1  39  39    1.0000000000
 46   1  40  40   -1.0000000000
  0   1  40  40   -1.0000000000
 50   1  41  41   -1.0000000000
  0   1  41  41   -1.0000000000
 54   1  42  42   -1.0000000000
  0   1  42  42   -1.0000000000
 58   1  43  43   -1.0000000000
  0   1  43  43   -1.0000000000
 62   1  44  44   -1.0000000000
  0   1  44  44   -1.0000000000
 66   1  45  45   -1.0000000000
  0   1  45  45   -1.0000000000
 70   1  46  46   -1.0000000000
  0   1  46  46   -1.0000000000
 74   1  47  47   -1.0000000000
  0   1  47  47   -1.0000000000
 82   1  48  48   -1.0000000000
  0   1  48  48   -1.0000000000
 84   1  49  49   -1.0000000000
  0   1  49  49   -1.0000000000
 87   1  50  50   -1.0000000000
  0   1  50  50   -1.0000000000
 89   1  51  51   -1.0000000000
  0   1  51  51   -1.0000000000
 92   1  52  52   -1.0000000000
  0   1  52  52   -1.0000000000
 94   1  53  53   -1.0000000000
  0   1  53  53   -1.0000000000
 97   1  54  54   -1.0000000000
  0   1  54  54   -1.0000000000
 99   1  55  55   -1.0000000000
  0   1  55  55   -1.0000000000
102   1  56  56   -1.0000000000
  0   1  56  56   -1.0000000000
104   1  57  57   -1.0000000000
  0   1  57  57   -1.0000000000
107   1  58  58   -1.0000000000
  0   1  58  58   -1.0000000000
109   1  59  59   -1.0000000000
  0   1  59  59   -1.0000000000
  0   2   1   1   -1.0000000000
  1   2   1   2    1.0000000000
  2   2   1   3    1.0000000000
  9   2   1   4    1.0000000000
 10   2   1   5    1.0000000000
 11   2   1   6    1.0000000000
  9   2   2   2    1.0000000000
 10   2   2   3    1.0000000000
 24   2   2   4    1.0000000000
 25   2   2   5    1.0000000000
 26   2   2   6    1.0000000000
 11   2   3   3    1.0000000000
 25   2   3   4    1.0000000000
 26   2   3   5    1.0000000000
 27   2   3   6    1.0000000000
 46   2   4   4    1.0000000000
 47   2   4   5    1.0000000000
 48   2   4   6    1.0000000000
 48   2   5   5    1.0000000000
 49   2   5   6    1.0000000000
 50   2   6   6    1.0000000000
  0   3   1   1   -1.0000000000
  2   3   1   2    1.0000000000
  3   3   1   3    1.0000000000
 11   3   1   4    1.0000000000
 12   3   1   5    1.0000000000
 13   3   1   6    1.0000000000
 11   3   2   2    1.0000000000
 12   3   2   3    1.0000000000
 27   3   2   4    1.0000000000
 28   3   2   5    1.0000000000
 29   3   2   6    1.0000000000
 13   3   3   3    1.0000000000
 28   3   3   4    1.0000000000
 29   3   3   5    1.0000000000
 30   3   3   6    1.0000000000
 50   3   4   4    1.0000000000
 51   3   4   5    1.0000000000
 52   3   4   6    1.0000000000
 52   3   5   5    1.0000000000
 53   3   5   6    1.0000000000
 54   3   6   6    1.0000000000
  0   4   1   1   -1.0000000000
  3   4   1   2    1.0000000000
  4   4   1   3    1.0000000000
 13   4   1   4    1.0000000000
 14   4   1   5    1.0000000000
 15   4   1   6    1.0000000000
 13   4   2   2    1.0000000000
 14   4   2   3    1.0000000000
 30   4   2   4    1.0000000000
 31   4   2   5    1.0000000000
 32   4   2   6    1.0000000000
 15   4   3   3    1.0000000000
 31   4   3   4    1.0000000000
 32   4   3   5    1.0000000000
 33   4   3   6    1.0000000000
 54   4   4   4    1.0000000000
 55   4   4   5    1.0000000000
 56   4   4   6    1.0000000000
 56   4   5   5    1.0000000000
 57   4   5   6    1.0000000000
 58   4   6   6    1.0000000000
  0   5   1   1   -1.0000000000
  4   5   1   2    1.0000000000
  5   5   1   3    1.0000000000
 15   5   1   4    1.0000000000
 16   5   1   5    1.0000000000
 17   5   1   6    1.0000000000
 15   5   2   2    1.0000000000
 16   5   2   3    1.0000000000
 33   5   2   4    1.0000000000
 34   5   2   5    1.0000000000
 35   5   2   6    1.0000000000
 17   5   3   3    1.0000000000
 34   5   3   4    1.0000000000
 35   5   3   5    1.0000000000
 36   5   3   6    1.0000000000
 58   5   4   4    1.0000000000
 59   5   4   5    1.0000000000
 60   5   4   6    1.0000000000
 60   5   5   5    1.0000000000
 61   5   5   6    1.0000000000
 62   5   6   6    1.0000000000
  0   6   1   1   -1.0000000000
  5   6   1   2    1.0000000000
  6   6   1   3    1.0000000000
 17   6   1   4    1.0000000000
 18   6   1   5    1.0000000000
 19   6   1   6    1.0000000000
 17   6   2   2    1.0000000000
 18   6   2   3    1.0000000000
 36   6   2   4    1.0000000000
 37   6   2   5    1.0000000000
 38   6   2   6    1.0000000000
 19   6   3   3    1.0000000000
 37   6   3   4    1.0000000000
 38   6   3   5    1.0000000000
 39   6   3   6    1.0000000000
 62   6   4   4    1.0000000000
 63   6   4   5    1.0000000000
 64   6   4   6    1.0000000000
 64   6   5   5    1.0000000000
 65   6   5   6    1.0000000000
 66   6   6   6    1.0000000000
  0   7   1   1   -1.0000000000
  6   7   1   2    1.0000000000
  7   7   1   3    1.0000000000
 19   7   1   4    1.0000000000
 20   7   1   5    1.0000000000
 21   7   1   6    1.0000000000
 19   7   2   2    1.0000000000
 20   7   2   3    1.0000000000
 39   7   2   4    1.0000000000
 40   7   2   5    1.0000000000
 41   7   2   6    1.0000000000
 21   7   3   3    1.0000000000
 40   7   3   4    1.0000000000
 41   7   3   5    1.0000000000
 42   7   3   6    1.0000000000
 66   7   4   4    1.0000000000
 67   7   4   5    1.0000000000
 68   7   4   6    1.0000000000
 68   7   5   5    1.0000000000
 69   7   5   6    1.0000000000
 70   7   6   6    1.0000000000
  0   8   1   1   -1.0000000000
  7   8   1   2    1.0000000000
  8   8   1   3    1.0000000000
 21   8   1   4    1.0000000000
 22   8   1   5    1.0000000000
 23   8   1   6    1.0000000000
 21   8   2   2    1.0000000000
 22   8   2   3    1.0000000000
 42   8   2   4    1.0000000000
 43   8   2   5    1.0000000000
 44   8   2   6    1.0000000000
 23   8   3   3    1.0000000000
 43   8   3   4    1.0000000000
 44   8   3   5    1.0000000000
 45   8   3   6    1.0000000000
 70   8   4   4    1.0000000000
 71   8   4   5    1.0000000000
 72   8   4   6    1.0000000000
 72   8   5   5    1.0000000000
 73   8   5   6    1.0000000000
 74   8   6   6    1.0000000000
  1   9   1   1    1.0000000000
  9   9   1   2    1.0000000000
 10   9   1   3    1.0000000000
 24   9   1   4    1.0000000000
 25   9   1   5    1.0000000000
 26   9   1   6    1.0000000000
 24   9   2   2    1.0000000000
 25   9   2   3    1.0000000000
 46   9   2   4    1.0000000000
 47   9   2   5    1.0000000000
 48   9   2   6    1.0000000000
 26   9   3   3    1.0000000000
 47   9   3   4    1.0000000000
 48   9   3   5    1.0000000000
 49   9   3   6    1.0000000000
 75   9   4   4    1.0000000000
 76   9   4   5    1.0000000000
 77   9   4   6    1.0000000000
 77   9   5   5    1.0000000000
 78   9   5   6    1.0000000000
 79   9   6   6    1.0000000000
  2  10   1   1    1.0000000000
 10  10   1   2    1.0000000000
 11  10   1   3    1.0000000000
 25  10   1   4    1.0000000000
 26  10   1   5    1.0000000000
 27  10   1   6    1.0000000000
 25  10   2   2    1.0000000000
 26  10   2   3    1.0000000000
 47  10   2   4    1.0000000000
 48  10   2   5    1.0000000000
 49  10   2   6    1.0000000000
 27  10   3   3    1.0000000000
 48  10   3   4    1.0000000000
 49  10   3   5    1.0000000000
 50  10   3   6    1.0000000000
 76  10   4   4    1.0000000000
 77  10   4   5    1.0000000000
 78  10   4   6    1.0000000000
 78  10   5   5    1.0000000000
 79  10   5   6    1.0000000000
 80  10   6   6    1.0000000000
  3  11   1   1    1.0000000000
 12  11   1   2    1.0000000000
 13  11   1   3    1.0000000000
 28  11   1   4    1.0000000000
 29  11   1   5    1.0000000000
 30  11   1   6    1.0000000000
 28  11   2   2    1.0000000000
 29  11   2   3    1.0000000000
 51  11   2   4    1.0000000000
 52  11   2   5    1.0000000000
 53  11   2   6    1.0000000000
 30  11   3   3    1.0000000000
 52  11   3   4    1.0000000000
 53  11   3   5    1.0000000000
 54  11   3   6    1.0000000000
 81  11   4   4    1.0000000000
 82  11   4   5    1.0000000000
 83  11   4   6    1.0000000000
 83  11   5   5    1.0000000000
 84  11   5   6    1.0000000000
 85  11   6   6    1.0000000000
  4  12   1   1    1.0000000000
 14  12   1   2    1.0000000000
 15  12   1   3    1.0000000000
 31  12   1   4    1.0000000000
 32  12   1   5    1.0000000000
 33  12   1   6    1.0000000000
 31  12   2   2    1.0000000000
 32  12   2   3    1.0000000000
 55  12   2   4    1.0000000000
 56  12   2   5    1.0000000000
 57  12   2   6    1.0000000000
 33  12   3   3    1.0000000000
 56  12   3   4    1.0000000000
 57  12   3   5    1.0000000000
 58  12   3   6    1.0000000000
 86  12   4   4    1.0000000000
 87  12   4   5    1.0000000000
 88  12   4   6    1.0000000000
 88  12   5   5    1.0000000000
 89  12   5   6    1.0000000000
 90  12   6   6    1.0000000000
  5  13   1   1    1.0000000000
 16  13   1   2    1.0000000000
 17  13   1   3    1.0000000000
 34  13   1   4    1.0000000000
 35  13   1   5    1.0000000000
 36  13   1   6    1.0000000000
 34  13   2   2    1.0000000000
 35  13   2   3    1.0000000000
 59  13   2   4    1.0000000000
 60  13   2   5    1.0000000000
 61  13   2   6    1.0000000000
 36  13   3   3    1.0000000000
 60  13   3   4    1.0000000000
 61  13   3   5    1.0000000000
 62  13   3   6    1.0000000000
 91  13   4   4    1.0000000000
 92  13   4   5    1.0000000000
 93  13   4   6    1.0000000000
 93  13   5   5    1.0000000000
 94  13   5   6    1.0000000000
 95  13   6   6    1.0000000000
  6  14   1   1    1.0000000000
 18  14   1   2    1.0000000000
 19  14   1   3    1.0000000000
 37  14   1   4    1.0000000000
 38  14   1   5    1.0000000000
 39  14   1   6    1.0000000000
 37  14   2   2    1.0000000000
 38  14   2   3    1.0000000000
 63  14   2   4    1.0000000000
 64  14   2   5    1.0000000000
 65  14   2   6    1.0000000000
 39  14   3   3    1.0000000000
 64  14   3   4    1.0000000000
 65  14   3   5    1.0000000000
 66  14   3   6    1.0000000000
 96  14   4   4    1.0000000000
 97  14   4   5    1.0000000000
 98  14   4   6    1.0000000000
 98  14   5   5    1.0000000000
 99  14   5   6    1.0000000000
100  14   6   6    1.0000000000
  7  15   1   1    1.0000000000
 20  15   1   2    1.0000000000
 21  15   1   3    1.0000000000
 40  15   1   4    1.0000000000
 41  15   1   5    1.0000000000
 42  15   1   6    1.0000000000
 40  15   2   2    1.0000000000
 41  15   2   3    1.0000000000
 67  15   2   4    1.0000000000
 68  15   2   5    1.0000000000
 69  15   2   6    1.0000000000
 42  15   3   3    1.0000000000
 68  15   3   4    1.0000000000
 69  15   3   5    1.0000000000
 70  15   3   6    1.0000000000
101  15   4   4    1.0000000000
102  15   4   5    1.0000000000
103  15   4   6    1.0000000000
103  15   5   5    1.0000000000
104  15   5   6    1.0000000000
105  15   6   6    1.0000000000
  8  16   1   1    1.0000000000
 22  16   1   2    1.0000000000
 23  16   1   3    1.0000000000
 43  16   1   4    1.0000000000
 44  16   1   5    1.0000000000
 45  16   1   6    1.0000000000
 43  16   2   2    1.0000000000
 44  16   2   3    1.0000000000
 71  16   2   4    1.0000000000
 72  16   2   5    1.0000000000
 73  16   2   6    1.0000000000
 45  16   3   3    1.0000000000
 72  16   3   4    1.0000000000
 73  16   3   5    1.0000000000
 74  16   3   6    1.0000000000
106  16   4   4    1.0000000000
107  16   4   5    1.0000000000
108  16   4   6    1.0000000000
108  16   5   5    1.0000000000
109  16   5   6    1.0000000000
110  16   6   6    1.0000000000
  0  17   1   1   -1.0000000000
  1  17   1   1   -1.0000000000
  1  17   1   2    1.0000000000
  9  17   1   2   -1.0000000000
  2  17   1   3    1.0000000000
 10  17   1   3   -1.0000000000
  9  17   1   4    1.0000000000
 24  17   1   4   -1.0000000000
 10  17   1   5    1.0000000000
 25  17   1   5   -1.0000000000
 11  17   1   6    1.0000000000
 26  17   1   6   -1.0000000000
  9  17   2   2    1.0000000000
 24  17   2   2   -1.0000000000
 10  17   2   3    1.0000000000
 25  17   2   3   -1.0000000000
 24  17   2   4    1.0000000000
 46  17   2   4   -1.0000000000
 25  17   2   5    1.0000000000
 47  17   2   5   -1.0000000000
 26  17   2   6    1.0000000000
 48  17   2   6   -1.0000000000
 11  17   3   3    1.0000000000
 26  17   3   3   -1.0000000000
 25  17   3   4    1.0000000000
 47  17   3   4   -1.0000000000
 26  17   3   5    1.0000000000
 48  17   3   5   -1.0000000000
 27  17   3   6    1.0000000000
 49  17   3   6   -1.0000000000
 46  17   4   4    1.0000000000
 75  17   4   4   -1.0000000000
 47  17   4   5    1.0000000000
 76  17   4   5   -1.0000000000
 48  17   4   6    1.0000000000
 77  17   4   6   -1.0000000000
 48  17   5   5    1.0000000000
 77  17   5   5   -1.0000000000
 49  17   5   6    1.0000000000
 78  17   5   6   -1.0000000000
 50  17   6   6    1.0000000000
 79  17   6   6   -1.0000000000
  0  18   1   1   -1.0000000000
  2  18   1   1   -1.0000000000
  1  18   1   2    1.0000000000
 10  18   1   2   -1.0000000000
  2  18   1   3    1.0000000000
 11  18   1   3   -1.0000000000
  9  18   1   4    1.0000000000
 25  18   1   4   -1.0000000000
 10  18   1   5    1.0000000000
 26  18   1   5   -1.0000000000
 11  18   1   6    1.0000000000
 27  18   1   6   -1.0000000000
  9  18   2   2    1.0000000000
 25  18   2   2   -1.0000000000
 10  18   2   3    1.0000000000
 26  18   2   3   -1.0000000000
 24  18   2   4    1.0000000000
 47  18   2   4   -1.0000000000
 25  18   2   5    1.0000000000
 48  18   2   5   -1.0000000000
 26  18   2   6    1.0000000000
 49  18   2   6   -1.0000000000
 11  18   3   3    1.0000000000
 27  18   3   3   -1.0000000000
 25  18   3   4    1.0000000000
 48  18   3   4   -1.0000000000
 26  18   3   5    1.0000000000
 49  18   3   5   -1.0000000000
 27  18   3   6    1.0000000000
 50  18   3   6   -1.0000000000
 46  18   4   4    1.0000000000
 76  18   4   4   -1.0000000000
 47  18   4   5    1.0000000000
 77  18   4   5   -1.0000000000
 48  18   4   6    1.0000000000
 78  18   4   6   -1.0000000000
 48  18   5   5    1.0000000000
 78  18   5   5   -1.0000000000
 49  18   5   6    1.0000000000
 79  18   5   6   -1.0000000000
 50  18   6   6    1.0000000000
 80  18   6   6   -1.0000000000
  0  19   1   1   -1.0000000000
  3  19   1   1   -1.0000000000
  2  19   1   2    1.0000000000
 12  19   1   2   -1.0000000000
  3  19   1   3    1.0000000000
 13  19   1   3   -1.0000000000
 11  19   1   4    1.0000000000
 28  19   1   4   -1.0000000000
 12  19   1   5    1.0000000000
 29  19   1   5   -1.0000000000
 13  19   1   6    1.0000000000
 30  19   1   6   -1.0000000000
 11  19   2   2    1.0000000000
 28  19   2   2   -1.0000000000
 12  19   2   3    1.0000000000
 29  19   2   3   -1.0000000000
 27  19   2   4    1.0000000000
 51  19   2   4   -1.0000000000
 28  19   2   5    1.0000000000
 52  19   2   5   -1.0000000000
 29  19   2   6    1.0000000000
 53  19   2   6   -1.0000000000
 13  19   3   3    1.0000000000
 30  19   3   3   -1.0000000000
 28  19   3   4    1.0000000000
 52  19   3   4   -1.0000000000
 29  19   3   5    1.0000000000
 53  19   3   5   -1.0000000000
 30  19   3   6    1.0000000000
 54  19   3   6   -1.0000000000
 50  19   4   4    1.0000000000
 81  19   4   4   -1.0000000000
 51  19   4   5    1.0000000000
 82  19   4   5   -1.0000000000
 52  19   4   6    1.0000000000
 83  19   4   6   -1.0000000000
 52  19   5   5    1.0000000000
 83  19   5   5   -1.0000000000
 53  19   5   6    1.0000000000
 84  19   5   6   -1.0000000000
 54  19   6   6    1.0000000000
 85  19   6   6   -1.0000000000
  0  20   1   1   -1.0000000000
  4  20   1   1   -1.0000000000
  3  20   1   2    1.0000000000
 14  20   1   2   -1.0000000000
  4  20   1   3    1.0000000000
 15  20   1   3   -1.0000000000
 13  20   1   4    1.0000000000
 31  20   1   4   -1.0000000000
 14  20   1   5    1.0000000000
 32  20   1   5   -1.0000000000
 15  20   1   6    1.0000000000
 33  20   1   6   -1.0000000000
 13  20   2   2    1.0000000000
 31  20   2   2   -1.0000000000
 14  20   2   3    1.0000000000
 32  20   2   3   -1.0000000000
 30  20   2   4    1.0000000000
 55  20   2   4   -1.0000000000
 31  20   2   5    1.0000000000
 56  20   2   5   -1.0000000000
 32  20   2   6    1.0000000000
 57  20   2   6   -1.0000000000
 15  20   3   3    1.0000000000
 33  20   3   3   -1.0000000000
 31  20   3   4    1.0000000000
 56  20   3   4   -1.0000000000
 32  20   3   5    1.0000000000
 57  20   3   5   -1.0000000000
 33  20   3   6    1.0000000000
 58  20   3   6   -1.0000000000
 54  20   4   4    1.0000000000
 86  20   4   4   -1.0000000000
 55  20   4   5    1.0000000000
 87  20   4   5   -1.0000000000
 56  20   4   6    1.0000000000
 88  20   4   6   -1.0000000000
 56  20   5   5    1.0000000000
 88  20   5   5   -1.0000000000
 57  20   5   6    1.0000000000
 89  20   5   6   -1.0000000000
 58  20   6   6    1.0000000000
 90  20   6   6   -1.0000000000
  0  21   1   1   -1.0000000000
  5  21   1   1   -1.0000000000
  4  21   1   2    1.0000000000
 16  21   1   2   -1.0000000000
  5  21   1   3    1.0000000000
 17  21   1   3   -1.0000000000
 15  21   1   4    1.0000000000
 34  21   1   4   -1.0000000000
 16  21   1   5    1.0000000000
 35  21   1   5   -1.0000000000
 17  21   1   6    1.0000000000
 36  21   1   6   -1.0000000000
 15  21   2   2    1.0000000000
 34  21   2   2   -1.0000000000
 16  21   2   3    1.0000000000
 35  21   2   3   -1.0000000000
 33  21   2   4    1.0000000000
 59  21   2   4   -1.0000000000
 34  21   2   5    1.0000000000
 60  21   2   5   -1.0000000000
 35  21   2   6    1.0000000000
 61  21   2   6   -1.0000000000
 17  21   3   3    1.0000000000
 36  21   3   3   -1.0000000000
 34  21   3   4    1.0000000000
 60  21   3   4   -1.0000000000
 35  21   3   5    1.0000000000
 61  21   3   5   -1.0000000000
 36  21   3   6    1.0000000000
 62  21   3   6   -1.0000000000
 58  21   4   4    1.0000000000
 91  21   4   4   -1.0000000000
 59  21   4   5    1.0000000000
 92  21   4   5   -1.0000000000
 60  21   4   6    1.0000000000
 93  21   4   6   -1.0000000000
 60  21   5   5    1.0000000000
 93  21   5   5   -1.0000000000
 61  21   5   6    1.0000000000
 94  21   5   6   -1.0000000000
 62  21   6   6    1.0000000000
 95  21   6   6   -1.0000000000
  0  22   1   1   -1.0000000000
  6  22   1   1   -1.0000000000
  5  22   1   2    1.0000000000
 18  22   1   2   -1.0000000000
  6  22   1   3    1.0000000000
 19  22   1   3   -1.0000000000
 17  22   1   4    1.0000000000
 37  22   1   4   -1.0000000000
 18  22   1   5    1.0000000000
 38  22   1   5   -1.0000000000
 19  22   1   6    1.0000000000
 39  22   1   6   -1.0000000000
 17  22   2   2    1.0000000000
 37  22   2   2   -1.0000000000
 18  22   2   3    1.0000000000
 38  22   2   3   -1.0000000000
 36  22   2   4    1.0000000000
 63  22   2   4   -1.0000000000
 37  22   2   5    1.0000000000
 64  22   2   5   -1.0000000000
 38  22   2   6    1.0000000000
 65  22   2   6   -1.0000000000
 19  22   3   3    1.0000000000
 39  22   3   3   -1.0000000000
 37  22   3   4    1.0000000000
 64  22   3   4   -1.0000000000
 38  22   3   5    1.0000000000
 65  22   3   5   -1.0000000000
 39  22   3   6    1.0000000000
 66  22   3   6   -1.0000000000
 62  22   4   4    1.0000000000
 96  22   4   4   -1.0000000000
 63  22   4   5    1.0000000000
 97  22   4   5   -1.0000000000
 64  22   4   6    1.0000000000
 98  22   4   6   -1.0000000000
 64  22   5   5    1.0000000000
 98  22   5   5   -1.0000000000
 65  22   5   6    1.0000000000
 99  22   5   6   -1.0000000000
 66  22   6   6    1.0000000000
100  22   6   6   -1.0000000000
  0  23   1   1   -1.0000000000
  7  23   1   1   -1.0000000000
  6  23   1   2    1.0000000000
 20  23   1   2   -1.0000000000
  7  23   1   3    1.0000000000
 21  23   1   3   -1.0000000000
 19  23   1   4    1.0000000000
 40  23   1   4   -1.0000000000
 20  23   1   5    1.0000000000
 41  23   1   5   -1.0000000000
 21  23   1   6    1.0000000000
 42  23   1   6   -1.0000000000
 19  23   2   2    1.0000000000
 40  23   2   2   -1.0000000000
 20  23   2   3    1.0000000000
 41  23   2   3   -1.0000000000
 39  23   2   4    1.0000000000
 67  23   2   4   -1.0000000000
 40  23   2   5    1.0000000000
 68  23   2   5   -1.0000000000
 41  23   2   6    1.0000000000
 69  23   2   6   -1.0000000000
 21  23   3   3    1.0000000000
 42  23   3   3   -1.0000000000
 40  23   3   4    1.0000000000
 68  23   3   4   -1.0000000000
 41  23   3   5    1.0000000000
 69  23   3   5   -1.0000000000
 42  23   3   6    1.0000000000
 70  23   3   6   -1.0000000000
 66  23   4   4    1.0000000000
101  23   4   4   -1.0000000000
 67  23   4   5    1.0000000000
102  23   4   5   -1.0000000000
 68  23   4   6    1.0000000000
103  23   4   6   -1.0000000000
 68  23   5   5    1.0000000000
103  23   5   5   -1.0000000000
 69  23   5   6    1.0000000000
104  23   5   6   -1.0000000000
 70  23   6   6    1.0000000000
105  23   6   6   -1.0000000000
  0  24   1   1   -1.0000000000
  8  24   1   1   -1.0000000000
  7  24   1   2    1.0000000000
 22  24   1   2   -1.0000000000
  8  24   1   3    1.0000000000
 23  24   1   3   -1.0000000000
 21  24   1   4    1.0000000000
 43  24   1   4   -1.0000000000
 22  24   1   5    1.0000000000
 44  24   1   5   -1.0000000000
 23  24   1   6    1.0000000000
 45  24   1   6   -1.0000000000
 21  24   2   2    1.0000000000
 43  24   2   2   -1.0000000000
 22  24   2   3    1.0000000000
 44  24   2   3   -1.0000000000
 42  24   2   4    1.0000000000
 71  24   2   4   -1.0000000000
 43  24   2   5    1.0000000000
 72  24   2   5   -1.0000000000
 44  24   2   6    1.0000000000
 73  24   2   6   -1.0000000000
 23  24   3   3    1.0000000000
 45  24   3   3   -1.0000000000
 43  24   3   4    1.0000000000
 72  24   3   4   -1.0000000000
 44  24   3   5    1.0000000000
 73  24   3   5   -1.0000000000
 45  24   3   6    1.0000000000
 74  24   3   6   -1.0000000000
 70  24   4   4    1.0000000000
106  24   4   4   -1.0000000000
 71  24   4   5    1.0000000000
107  24   4   5   -1.0000000000
 72  24   4   6    1.0000000000
108  24   4   6   -1.0000000000
 72  24   5   5    1.0000000000
108  24   5   5   -1.0000000000
 73  24   5   6    1.0000000000
109  24   5   6   -1.0000000000
 74  24   6   6    1.0000000000
110  24   6   6   -1.0000000000
